10J3M/DAT/10J3MUNR-11.dat
10 3
40.9241 9.0605
6.1054 2.2701
41.4244 5.3737
24.9367 34.4367
14.7161 18.4477
6.956 27.661
5.8061 16.494
18.8774 0.8223
9.8792 46.6766
32.8862 6.2248
167.4674