10J3M/SOL/10J3MUNR-11.sol
solution status: optimal solution found
objective value:                     92.7578666666667
x#1#2                                               1 	(obj:0)
x#2#2                               0.989187026586189 	(obj:0)
x#2#3                              0.0108129734138111 	(obj:0)
x#3#1                                               1 	(obj:0)
x#4#1                                0.12782629585665 	(obj:0)
x#4#2                               0.872173704143349 	(obj:0)
x#5#3                                               1 	(obj:0)
x#6#1                                               1 	(obj:0)
x#7#3                                               1 	(obj:0)
x#8#1                                               1 	(obj:0)
x#9#1                                               1 	(obj:0)
x#10#1                                              1 	(obj:0)
z                                    92.7578666666667 	(obj:1)
